NAME: line_51_83
TYPE: TSP
COMMENT: srandom_51_83
DIMENSION: 51
EDGE_WEIGHT_TYPE: EUC_2D
NODE_COORD_SECTION
1 4082 3557
2 4676 3589
3 3054 1748
4 3256 2042
5 3484 1251
6 4307 4707
7 2767 4343
8 3340 2772
9 4640 4541
10 1046 1266
11 1324 2119
12 4727 2207
13 1929 257
14 4680 150
15 2038 1511
16 3837 1938
17 3097 4008
18 1616 4083
19 1011 2450
20 2926 3073
21 4078 841
22 3084 402
23 258 3374
24 4659 2316
25 562 2791
26 2641 537
27 3628 800
28 4823 1960
29 4763 1539
30 4850 913
31 3138 1181
32 896 1663
33 1132 2410
34 1891 2407
35 188 29
36 1158 4602
37 3009 4354
38 3401 2520
39 4564 2949
40 4458 2750
41 354 1937
42 1725 386
43 3893 4759
44 2258 1739
45 4099 4527
46 184 3976
47 2287 4499
48 1321 2540
49 635 1426
50 3001 2524
51 3534 2041
